$molecule
 0 1
 --
 0 1
 Be   0.04175    -0.02458   -1.42859  
 O   -0.58755     0.12102   -2.59312  
 --
 0 1
 C    0.86805    -0.21377    0.10234   
 O    1.39327    -0.33449    1.07909   
$end

$rem
 JOBTYPE  OPT
 METHOD  WB97X-D
 BASIS  DEF2-TZVPP
 SCF_CONVERGENCE  8
 SYM_IGNORE  FALSE
 GEOM_OPT_TOL_GRADIENT  100
 GEOM_OPT_TOL_DISPLACEMENT  100
 GEOM_OPT_TOL_ENERGY  10
 GEOM_OPT_DRIVER  OPTIMIZE
$end

@@@

$molecule
 read
$end

$rem
 JOBTYPE  FREQ
 METHOD  WB97X-D
 BASIS  DEF2-TZVPP
 SCF_CONVERGENCE  8
 SYM_IGNORE  FALSE
$end

@@@

$molecule
 read
$end

$rem
 JOBTYPE  OPT
 METHOD  WB97X-D
 BASIS  DEF2-TZVPP
 POL_GEOM  TRUE
 SCF_CONVERGENCE  8
 SYM_IGNORE  FALSE
 GEOM_OPT_TOL_GRADIENT  100
 GEOM_OPT_TOL_DISPLACEMENT  100
 GEOM_OPT_TOL_ENERGY  10
 GEOM_OPT_DRIVER  OPTIMIZE
$end

@@@

$molecule
 read
$end

$rem
 JOBTYPE  FREQ
 METHOD  WB97X-D
 BASIS  DEF2-TZVPP
 POL_GEOM  TRUE
 SCF_CONVERGENCE  8
 SYM_IGNORE  FALSE
$end

@@@

$molecule
 read
$end

$rem
 JOBTYPE  OPT
 METHOD  WB97X-D
 BASIS  DEF2-TZVPP
 FRZ_GEOM  TRUE
 SCF_CONVERGENCE  8
 SYM_IGNORE  FALSE
 GEOM_OPT_TOL_GRADIENT  100
 GEOM_OPT_TOL_DISPLACEMENT  100
 GEOM_OPT_TOL_ENERGY  10
 GEOM_OPT_DRIVER  OPTIMIZE
$end

@@@

$molecule
 read
$end

$rem
 JOBTYPE  FREQ
 METHOD  WB97X-D
 BASIS  DEF2-TZVPP
 FRZ_GEOM  TRUE
 SCF_CONVERGENCE  8
 SYM_IGNORE  FALSE
$end
